Problem:    modified
Rows:       3
Columns:    2 (2 integer, 2 binary)
Non-zeros:  6
Status:     INTEGER OPTIMAL
Objective:  removed_votes = 1 (MINimum)

   No.   Row name        Activity     Lower bound   Upper bound
------ ------------    ------------- ------------- -------------
     1 removed_votes
                                   1                             
     2 greater_than_alternatives[a]
                                  -2                          -1 
     3 greater_than_alternatives[b]
                                  -1                           1 

   No. Column name       Activity     Lower bound   Upper bound
------ ------------    ------------- ------------- -------------
     1 discard_vote[v1]
                    *              1             0             1 
     2 discard_vote[v2]
                    *              0             0             1 

Integer feasibility conditions:

KKT.PE: max.abs.err = 0.00e+00 on row 0
        max.rel.err = 0.00e+00 on row 0
        High quality

KKT.PB: max.abs.err = 0.00e+00 on row 0
        max.rel.err = 0.00e+00 on row 0
        High quality

End of output
